param n := 120;
param c := 150;
param : V : p w :=
   0	  36	  26
   1	  35	  25
   2	  77	  67
   3	  87	  77
   4	  77	  67
   5	  89	  79
   6	  57	  47
   7	  94	  84
   8	  60	  50
   9	  31	  21
  10	  97	  87
  11	  93	  83
  12	  54	  44
  13	  98	  88
  14	  88	  78
  15	  63	  53
  16	  88	  78
  17	  47	  37
  18	  57	  47
  19	  62	  52
  20	  42	  32
  21	  98	  88
  22	  95	  85
  23	  92	  82
  24	  65	  55
  25	  51	  41
  26	  70	  60
  27	  76	  66
  28	  88	  78
  29	  82	  72
  30	  44	  34
  31	  74	  64
  32	  30	  20
  33	  70	  60
  34	 110	 100
  35	  72	  62
  36	  90	  80
  37	  44	  34
  38	  78	  68
  39	  48	  38
  40	  42	  32
  41	  42	  32
  42	  47	  37
  43	  92	  82
  44	 108	  98
  45	 100	  90
  46	  68	  58
  47	 107	  97
  48	  66	  56
  49	  44	  34
  50	  80	  70
  51	  49	  39
  52	  66	  56
  53	  79	  69
  54	  46	  36
  55	  30	  20
  56	 109	  99
  57	  94	  84
  58	  63	  53
  59	  37	  27
  60	  98	  88
  61	  63	  53
  62	  52	  42
  63	  55	  45
  64	  52	  42
  65	  41	  31
  66	  64	  54
  67	  70	  60
  68	  65	  55
  69	  37	  27
  70	  46	  36
  71	  41	  31
  72	  49	  39
  73	 101	  91
  74	  55	  45
  75	 107	  97
  76	  36	  26
  77	  90	  80
  78	  51	  41
  79	  66	  56
  80	  80	  70
  81	 107	  97
  82	  58	  48
  83	  97	  87
  84	  33	  23
  85	  42	  32
  86	  85	  75
  87	 110	 100
  88	 107	  97
  89	  61	  51
  90	  88	  78
  91	  88	  78
  92	  31	  21
  93	  82	  72
  94	  82	  72
  95	  89	  79
  96	  56	  46
  97	  40	  30
  98	  58	  48
  99	  37	  27
 100	 105	  95
 101	  58	  48
 102	  77	  67
 103	  68	  58
 104	  56	  46
 105	 102	  92
 106	  31	  21
 107	  92	  82
 108	 101	  91
 109	  50	  40
 110	  66	  56
 111	  34	  24
 112	 104	  94
 113	  54	  44
 114	 101	  91
 115	 102	  92
 116	  91	  81
 117	  34	  24
 118	  94	  84
 119	  54	  44
;

set E :=
   0	   3
   0	   7
   0	   9
   0	  10
   0	  12
   0	  13
   0	  16
   0	  17
   0	  19
   0	  21
   0	  23
   0	  24
   0	  25
   0	  28
   0	  29
   0	  30
   0	  31
   0	  34
   0	  35
   0	  36
   0	  40
   0	  41
   0	  44
   0	  45
   0	  47
   0	  50
   0	  51
   0	  52
   0	  55
   0	  56
   0	  61
   0	  62
   0	  63
   0	  68
   0	  71
   0	  72
   0	  73
   0	  75
   0	  76
   0	  77
   0	  81
   0	  86
   0	  87
   0	  90
   0	  91
   0	  92
   0	  93
   0	  94
   0	  96
   0	  97
   0	 101
   0	 102
   0	 106
   0	 108
   0	 110
   0	 112
   0	 113
   0	 114
   0	 116
   0	 118
   0	 119
   1	   2
   1	   3
   1	   5
   1	   6
   1	   7
   1	   8
   1	   9
   1	  10
   1	  11
   1	  14
   1	  17
   1	  18
   1	  19
   1	  20
   1	  24
   1	  25
   1	  26
   1	  29
   1	  32
   1	  33
   1	  35
   1	  37
   1	  38
   1	  39
   1	  40
   1	  43
   1	  44
   1	  47
   1	  49
   1	  51
   1	  52
   1	  53
   1	  54
   1	  57
   1	  59
   1	  60
   1	  61
   1	  62
   1	  65
   1	  66
   1	  67
   1	  70
   1	  72
   1	  74
   1	  78
   1	  79
   1	  83
   1	  84
   1	  86
   1	  90
   1	  91
   1	  92
   1	  95
   1	  96
   1	  97
   1	  98
   1	 100
   1	 106
   1	 109
   1	 110
   1	 111
   1	 116
   1	 118
   2	   5
   2	   6
   2	   9
   2	  10
   2	  11
   2	  12
   2	  13
   2	  14
   2	  17
   2	  18
   2	  20
   2	  22
   2	  27
   2	  28
   2	  30
   2	  31
   2	  32
   2	  34
   2	  35
   2	  36
   2	  38
   2	  39
   2	  43
   2	  47
   2	  48
   2	  49
   2	  50
   2	  51
   2	  53
   2	  55
   2	  57
   2	  58
   2	  59
   2	  60
   2	  61
   2	  62
   2	  63
   2	  64
   2	  65
   2	  66
   2	  70
   2	  71
   2	  72
   2	  75
   2	  76
   2	  79
   2	  80
   2	  81
   2	  83
   2	  85
   2	  87
   2	  88
   2	  90
   2	  91
   2	  92
   2	  97
   2	 102
   2	 105
   2	 107
   2	 108
   2	 109
   2	 111
   2	 112
   2	 116
   2	 117
   2	 119
   3	   4
   3	   5
   3	  10
   3	  12
   3	  13
   3	  16
   3	  20
   3	  24
   3	  25
   3	  26
   3	  27
   3	  31
   3	  33
   3	  34
   3	  35
   3	  36
   3	  37
   3	  40
   3	  44
   3	  45
   3	  46
   3	  48
   3	  50
   3	  52
   3	  54
   3	  56
   3	  60
   3	  63
   3	  64
   3	  66
   3	  67
   3	  69
   3	  70
   3	  73
   3	  76
   3	  78
   3	  80
   3	  86
   3	  90
   3	  91
   3	  98
   3	 104
   3	 105
   3	 108
   3	 109
   3	 110
   3	 111
   3	 112
   3	 113
   3	 114
   3	 115
   3	 119
   4	   5
   4	   6
   4	   7
   4	   8
   4	  11
   4	  15
   4	  16
   4	  19
   4	  21
   4	  22
   4	  27
   4	  30
   4	  31
   4	  32
   4	  34
   4	  35
   4	  36
   4	  37
   4	  38
   4	  40
   4	  41
   4	  43
   4	  45
   4	  48
   4	  50
   4	  52
   4	  54
   4	  56
   4	  59
   4	  61
   4	  62
   4	  63
   4	  67
   4	  69
   4	  70
   4	  71
   4	  73
   4	  74
   4	  77
   4	  78
   4	  79
   4	  80
   4	  81
   4	  83
   4	  85
   4	  86
   4	  87
   4	  88
   4	  89
   4	  90
   4	  91
   4	  92
   4	  94
   4	  97
   4	  99
   4	 101
   4	 104
   4	 105
   4	 106
   4	 107
   4	 109
   4	 111
   4	 113
   4	 115
   4	 116
   4	 117
   4	 118
   4	 119
   5	   9
   5	  10
   5	  12
   5	  13
   5	  16
   5	  23
   5	  26
   5	  28
   5	  30
   5	  32
   5	  34
   5	  37
   5	  39
   5	  41
   5	  43
   5	  48
   5	  51
   5	  52
   5	  54
   5	  55
   5	  58
   5	  59
   5	  64
   5	  65
   5	  66
   5	  67
   5	  68
   5	  69
   5	  71
   5	  78
   5	  81
   5	  91
   5	  92
   5	  93
   5	  94
   5	  96
   5	  98
   5	 103
   5	 109
   5	 110
   5	 111
   5	 114
   5	 116
   5	 118
   6	   7
   6	   9
   6	  10
   6	  11
   6	  13
   6	  14
   6	  15
   6	  16
   6	  18
   6	  19
   6	  21
   6	  26
   6	  29
   6	  32
   6	  35
   6	  37
   6	  38
   6	  41
   6	  43
   6	  46
   6	  47
   6	  48
   6	  49
   6	  51
   6	  52
   6	  56
   6	  60
   6	  61
   6	  64
   6	  65
   6	  66
   6	  68
   6	  69
   6	  71
   6	  72
   6	  77
   6	  78
   6	  80
   6	  81
   6	  83
   6	  84
   6	  85
   6	  86
   6	  87
   6	  88
   6	  90
   6	  91
   6	  92
   6	  96
   6	  97
   6	  98
   6	  99
   6	 102
   6	 107
   6	 110
   6	 112
   6	 117
   6	 118
   6	 119
   7	   8
   7	  10
   7	  11
   7	  13
   7	  14
   7	  16
   7	  17
   7	  18
   7	  19
   7	  20
   7	  23
   7	  27
   7	  29
   7	  30
   7	  32
   7	  34
   7	  35
   7	  36
   7	  37
   7	  39
   7	  40
   7	  41
   7	  43
   7	  44
   7	  46
   7	  47
   7	  48
   7	  50
   7	  51
   7	  52
   7	  54
   7	  57
   7	  61
   7	  63
   7	  65
   7	  68
   7	  69
   7	  71
   7	  73
   7	  74
   7	  77
   7	  80
   7	  82
   7	  83
   7	  85
   7	  87
   7	  89
   7	  90
   7	  91
   7	  92
   7	  93
   7	  94
   7	  95
   7	  96
   7	  98
   7	 102
   7	 103
   7	 104
   7	 106
   7	 109
   7	 110
   7	 111
   7	 112
   7	 113
   7	 114
   7	 116
   7	 117
   7	 118
   7	 119
   8	   9
   8	  10
   8	  11
   8	  12
   8	  13
   8	  14
   8	  18
   8	  19
   8	  20
   8	  26
   8	  27
   8	  31
   8	  32
   8	  33
   8	  36
   8	  38
   8	  40
   8	  41
   8	  42
   8	  44
   8	  46
   8	  47
   8	  51
   8	  53
   8	  54
   8	  55
   8	  56
   8	  57
   8	  59
   8	  60
   8	  61
   8	  62
   8	  67
   8	  68
   8	  69
   8	  70
   8	  73
   8	  76
   8	  77
   8	  80
   8	  81
   8	  84
   8	  86
   8	  88
   8	  89
   8	  90
   8	  92
   8	  94
   8	  96
   8	  97
   8	  99
   8	 100
   8	 102
   8	 105
   8	 106
   8	 107
   8	 110
   8	 111
   8	 112
   8	 115
   8	 119
   9	  10
   9	  11
   9	  16
   9	  18
   9	  20
   9	  21
   9	  24
   9	  25
   9	  28
   9	  29
   9	  30
   9	  32
   9	  33
   9	  35
   9	  41
   9	  45
   9	  50
   9	  51
   9	  52
   9	  55
   9	  58
   9	  59
   9	  60
   9	  61
   9	  62
   9	  64
   9	  69
   9	  73
   9	  74
   9	  76
   9	  78
   9	  80
   9	  82
   9	  83
   9	  85
   9	  86
   9	  90
   9	  91
   9	  94
   9	  96
   9	  98
   9	  99
   9	 101
   9	 102
   9	 103
   9	 104
   9	 105
   9	 108
   9	 109
   9	 110
   9	 112
   9	 114
   9	 117
   9	 118
   9	 119
  10	  22
  10	  24
  10	  26
  10	  31
  10	  34
  10	  39
  10	  40
  10	  41
  10	  42
  10	  43
  10	  44
  10	  49
  10	  52
  10	  55
  10	  56
  10	  59
  10	  60
  10	  65
  10	  68
  10	  69
  10	  71
  10	  75
  10	  77
  10	  80
  10	  82
  10	  83
  10	  84
  10	  87
  10	  88
  10	  89
  10	  90
  10	  91
  10	  92
  10	  93
  10	  95
  10	  96
  10	  97
  10	  98
  10	 101
  10	 102
  10	 103
  10	 105
  10	 106
  10	 107
  10	 109
  10	 110
  10	 114
  10	 115
  10	 116
  10	 119
  11	  13
  11	  14
  11	  20
  11	  25
  11	  28
  11	  29
  11	  31
  11	  32
  11	  33
  11	  34
  11	  37
  11	  38
  11	  39
  11	  44
  11	  46
  11	  47
  11	  52
  11	  54
  11	  55
  11	  56
  11	  57
  11	  60
  11	  62
  11	  63
  11	  64
  11	  67
  11	  69
  11	  71
  11	  72
  11	  73
  11	  75
  11	  77
  11	  78
  11	  79
  11	  82
  11	  84
  11	  92
  11	  93
  11	  94
  11	  95
  11	  96
  11	 101
  11	 102
  11	 114
  11	 116
  11	 117
  11	 118
  11	 119
  12	  13
  12	  14
  12	  15
  12	  16
  12	  17
  12	  18
  12	  21
  12	  22
  12	  24
  12	  29
  12	  30
  12	  31
  12	  33
  12	  34
  12	  36
  12	  37
  12	  38
  12	  39
  12	  41
  12	  42
  12	  47
  12	  48
  12	  49
  12	  50
  12	  52
  12	  54
  12	  55
  12	  57
  12	  59
  12	  67
  12	  69
  12	  71
  12	  72
  12	  73
  12	  75
  12	  76
  12	  78
  12	  83
  12	  85
  12	  86
  12	  87
  12	  88
  12	  89
  12	  91
  12	  92
  12	  93
  12	  94
  12	 101
  12	 103
  12	 104
  12	 105
  12	 106
  12	 107
  12	 108
  12	 113
  12	 119
  13	  14
  13	  17
  13	  18
  13	  20
  13	  23
  13	  28
  13	  29
  13	  31
  13	  33
  13	  34
  13	  35
  13	  41
  13	  42
  13	  44
  13	  45
  13	  48
  13	  50
  13	  54
  13	  55
  13	  58
  13	  60
  13	  61
  13	  64
  13	  65
  13	  66
  13	  67
  13	  70
  13	  71
  13	  72
  13	  74
  13	  75
  13	  79
  13	  80
  13	  83
  13	  85
  13	  87
  13	  90
  13	  92
  13	  94
  13	  95
  13	  96
  13	 103
  13	 105
  13	 107
  13	 112
  13	 115
  13	 118
  14	  23
  14	  24
  14	  25
  14	  26
  14	  27
  14	  29
  14	  31
  14	  35
  14	  37
  14	  38
  14	  39
  14	  40
  14	  41
  14	  43
  14	  45
  14	  47
  14	  51
  14	  52
  14	  54
  14	  57
  14	  59
  14	  61
  14	  63
  14	  65
  14	  68
  14	  72
  14	  76
  14	  80
  14	  84
  14	  87
  14	  89
  14	  91
  14	  92
  14	  93
  14	  94
  14	  96
  14	  98
  14	  99
  14	 101
  14	 102
  14	 104
  14	 107
  14	 108
  14	 111
  14	 112
  14	 113
  14	 114
  14	 115
  14	 116
  14	 117
  14	 118
  14	 119
  15	  16
  15	  17
  15	  18
  15	  21
  15	  22
  15	  25
  15	  29
  15	  32
  15	  33
  15	  34
  15	  35
  15	  36
  15	  37
  15	  38
  15	  46
  15	  47
  15	  49
  15	  51
  15	  52
  15	  54
  15	  55
  15	  56
  15	  58
  15	  60
  15	  65
  15	  66
  15	  67
  15	  70
  15	  71
  15	  72
  15	  74
  15	  76
  15	  78
  15	  79
  15	  82
  15	  84
  15	  86
  15	  87
  15	  92
  15	  94
  15	  95
  15	  99
  15	 100
  15	 101
  15	 102
  15	 103
  15	 104
  15	 108
  15	 109
  15	 110
  15	 111
  15	 112
  15	 115
  15	 117
  15	 118
  15	 119
  16	  19
  16	  20
  16	  21
  16	  23
  16	  28
  16	  29
  16	  30
  16	  33
  16	  37
  16	  40
  16	  41
  16	  45
  16	  52
  16	  58
  16	  59
  16	  60
  16	  61
  16	  62
  16	  64
  16	  65
  16	  66
  16	  67
  16	  69
  16	  71
  16	  75
  16	  76
  16	  78
  16	  82
  16	  88
  16	  90
  16	  91
  16	  94
  16	  95
  16	  96
  16	  98
  16	 100
  16	 104
  16	 106
  16	 108
  16	 110
  16	 111
  16	 113
  16	 114
  16	 115
  16	 117
  16	 118
  17	  18
  17	  19
  17	  23
  17	  24
  17	  27
  17	  28
  17	  29
  17	  30
  17	  31
  17	  32
  17	  35
  17	  36
  17	  37
  17	  41
  17	  44
  17	  45
  17	  49
  17	  51
  17	  53
  17	  54
  17	  59
  17	  62
  17	  66
  17	  67
  17	  72
  17	  75
  17	  77
  17	  82
  17	  83
  17	  85
  17	  89
  17	  91
  17	  95
  17	  96
  17	  97
  17	  99
  17	 100
  17	 103
  17	 104
  17	 105
  17	 106
  17	 108
  17	 110
  17	 111
  17	 112
  17	 114
  17	 115
  17	 119
  18	  19
  18	  22
  18	  24
  18	  25
  18	  26
  18	  28
  18	  29
  18	  35
  18	  36
  18	  40
  18	  41
  18	  42
  18	  44
  18	  45
  18	  46
  18	  47
  18	  48
  18	  49
  18	  50
  18	  51
  18	  52
  18	  54
  18	  56
  18	  59
  18	  61
  18	  62
  18	  68
  18	  69
  18	  72
  18	  75
  18	  76
  18	  80
  18	  86
  18	  87
  18	  88
  18	  89
  18	  91
  18	  93
  18	  94
  18	  95
  18	  97
  18	  99
  18	 100
  18	 101
  18	 102
  18	 103
  18	 107
  18	 110
  18	 111
  18	 112
  18	 114
  18	 117
  18	 119
  19	  20
  19	  21
  19	  22
  19	  25
  19	  26
  19	  27
  19	  30
  19	  35
  19	  37
  19	  38
  19	  41
  19	  42
  19	  43
  19	  45
  19	  51
  19	  52
  19	  53
  19	  57
  19	  60
  19	  67
  19	  68
  19	  69
  19	  72
  19	  73
  19	  74
  19	  78
  19	  79
  19	  81
  19	  82
  19	  83
  19	  87
  19	  89
  19	  92
  19	  94
  19	  95
  19	  97
  19	 100
  19	 102
  19	 104
  19	 105
  19	 106
  19	 107
  19	 108
  19	 109
  19	 111
  19	 117
  19	 119
  20	  24
  20	  27
  20	  28
  20	  29
  20	  30
  20	  31
  20	  33
  20	  36
  20	  37
  20	  42
  20	  44
  20	  48
  20	  51
  20	  53
  20	  54
  20	  55
  20	  57
  20	  59
  20	  60
  20	  61
  20	  62
  20	  63
  20	  64
  20	  66
  20	  68
  20	  70
  20	  71
  20	  73
  20	  74
  20	  75
  20	  76
  20	  77
  20	  82
  20	  85
  20	  86
  20	  89
  20	  90
  20	  91
  20	  92
  20	  94
  20	  95
  20	  96
  20	  97
  20	  98
  20	 102
  20	 106
  20	 107
  20	 110
  20	 111
  20	 113
  20	 114
  20	 116
  20	 117
  20	 118
  20	 119
  21	  24
  21	  28
  21	  29
  21	  31
  21	  32
  21	  38
  21	  39
  21	  40
  21	  42
  21	  43
  21	  44
  21	  48
  21	  50
  21	  51
  21	  54
  21	  55
  21	  56
  21	  59
  21	  61
  21	  65
  21	  71
  21	  72
  21	  73
  21	  77
  21	  78
  21	  79
  21	  80
  21	  85
  21	  86
  21	  91
  21	  92
  21	  95
  21	  96
  21	  98
  21	 100
  21	 102
  21	 103
  21	 106
  21	 107
  21	 109
  21	 110
  21	 112
  21	 117
  22	  23
  22	  24
  22	  26
  22	  31
  22	  32
  22	  33
  22	  34
  22	  36
  22	  38
  22	  39
  22	  41
  22	  42
  22	  43
  22	  45
  22	  47
  22	  48
  22	  53
  22	  54
  22	  55
  22	  56
  22	  57
  22	  58
  22	  59
  22	  60
  22	  61
  22	  62
  22	  64
  22	  65
  22	  67
  22	  68
  22	  69
  22	  71
  22	  72
  22	  75
  22	  78
  22	  80
  22	  81
  22	  83
  22	  84
  22	  85
  22	  87
  22	  88
  22	  90
  22	  92
  22	  93
  22	  97
  22	  98
  22	 102
  22	 103
  22	 105
  22	 107
  22	 108
  22	 110
  22	 111
  22	 112
  22	 115
  22	 116
  22	 119
  23	  24
  23	  27
  23	  29
  23	  31
  23	  32
  23	  33
  23	  36
  23	  37
  23	  38
  23	  40
  23	  41
  23	  43
  23	  44
  23	  45
  23	  50
  23	  53
  23	  54
  23	  57
  23	  61
  23	  65
  23	  67
  23	  69
  23	  70
  23	  71
  23	  73
  23	  74
  23	  75
  23	  76
  23	  77
  23	  78
  23	  82
  23	  85
  23	  86
  23	  92
  23	  93
  23	  96
  23	  99
  23	 103
  23	 104
  23	 106
  23	 107
  23	 110
  23	 111
  23	 112
  23	 113
  23	 114
  23	 116
  23	 117
  23	 118
  23	 119
  24	  31
  24	  32
  24	  34
  24	  36
  24	  37
  24	  38
  24	  41
  24	  42
  24	  44
  24	  45
  24	  46
  24	  47
  24	  48
  24	  49
  24	  50
  24	  52
  24	  54
  24	  59
  24	  60
  24	  66
  24	  67
  24	  68
  24	  70
  24	  71
  24	  78
  24	  79
  24	  82
  24	  84
  24	  86
  24	  87
  24	  90
  24	  91
  24	  92
  24	  93
  24	  96
  24	  97
  24	 102
  24	 105
  24	 111
  24	 113
  24	 115
  24	 118
  24	 119
  25	  26
  25	  27
  25	  30
  25	  31
  25	  36
  25	  37
  25	  40
  25	  46
  25	  47
  25	  49
  25	  52
  25	  56
  25	  57
  25	  62
  25	  64
  25	  65
  25	  67
  25	  68
  25	  70
  25	  71
  25	  74
  25	  75
  25	  79
  25	  81
  25	  82
  25	  83
  25	  84
  25	  85
  25	  86
  25	  87
  25	  88
  25	  89
  25	  91
  25	  92
  25	  96
  25	  99
  25	 100
  25	 102
  25	 104
  25	 106
  25	 110
  25	 111
  25	 112
  25	 117
  25	 118
  25	 119
  26	  27
  26	  28
  26	  29
  26	  30
  26	  31
  26	  34
  26	  35
  26	  36
  26	  38
  26	  39
  26	  41
  26	  43
  26	  47
  26	  48
  26	  49
  26	  51
  26	  55
  26	  56
  26	  57
  26	  58
  26	  59
  26	  60
  26	  62
  26	  63
  26	  65
  26	  68
  26	  69
  26	  72
  26	  73
  26	  74
  26	  76
  26	  80
  26	  81
  26	  82
  26	  83
  26	  84
  26	  85
  26	  86
  26	  88
  26	  89
  26	  91
  26	  92
  26	  93
  26	  95
  26	  96
  26	  97
  26	  98
  26	 100
  26	 103
  26	 105
  26	 108
  26	 109
  26	 112
  26	 114
  26	 115
  26	 117
  26	 118
  26	 119
  27	  29
  27	  30
  27	  31
  27	  36
  27	  38
  27	  39
  27	  41
  27	  49
  27	  55
  27	  57
  27	  59
  27	  60
  27	  66
  27	  68
  27	  70
  27	  71
  27	  72
  27	  73
  27	  74
  27	  75
  27	  76
  27	  77
  27	  78
  27	  79
  27	  80
  27	  83
  27	  85
  27	  88
  27	  89
  27	  92
  27	  93
  27	  94
  27	  97
  27	 101
  27	 102
  27	 103
  27	 104
  27	 105
  27	 109
  27	 112
  27	 113
  27	 118
  28	  29
  28	  30
  28	  33
  28	  38
  28	  41
  28	  46
  28	  48
  28	  51
  28	  52
  28	  53
  28	  55
  28	  58
  28	  59
  28	  61
  28	  62
  28	  65
  28	  66
  28	  68
  28	  69
  28	  73
  28	  75
  28	  76
  28	  77
  28	  78
  28	  84
  28	  85
  28	  87
  28	  88
  28	  90
  28	  93
  28	  94
  28	  95
  28	  99
  28	 100
  28	 101
  28	 102
  28	 105
  28	 107
  28	 108
  28	 109
  28	 110
  28	 111
  28	 113
  28	 114
  28	 115
  28	 118
  28	 119
  29	  31
  29	  32
  29	  35
  29	  36
  29	  37
  29	  39
  29	  41
  29	  42
  29	  45
  29	  46
  29	  48
  29	  51
  29	  52
  29	  55
  29	  56
  29	  59
  29	  61
  29	  63
  29	  64
  29	  66
  29	  67
  29	  70
  29	  72
  29	  75
  29	  80
  29	  81
  29	  82
  29	  85
  29	  86
  29	  87
  29	  89
  29	  90
  29	  91
  29	  92
  29	  94
  29	  97
  29	  98
  29	 103
  29	 106
  29	 108
  29	 110
  29	 112
  29	 113
  29	 115
  29	 116
  29	 117
  29	 119
  30	  31
  30	  32
  30	  33
  30	  40
  30	  42
  30	  43
  30	  45
  30	  46
  30	  47
  30	  53
  30	  54
  30	  55
  30	  57
  30	  58
  30	  59
  30	  60
  30	  61
  30	  63
  30	  67
  30	  68
  30	  70
  30	  71
  30	  72
  30	  75
  30	  76
  30	  78
  30	  82
  30	  84
  30	  87
  30	  88
  30	  90
  30	  92
  30	  93
  30	  94
  30	  97
  30	 100
  30	 101
  30	 104
  30	 106
  30	 109
  30	 112
  30	 113
  30	 119
  31	  32
  31	  37
  31	  41
  31	  42
  31	  44
  31	  47
  31	  51
  31	  55
  31	  59
  31	  61
  31	  64
  31	  67
  31	  69
  31	  70
  31	  72
  31	  76
  31	  77
  31	  78
  31	  80
  31	  81
  31	  85
  31	  88
  31	  93
  31	  95
  31	  96
  31	  97
  31	  99
  31	 101
  31	 106
  31	 108
  31	 109
  31	 110
  31	 112
  31	 113
  31	 114
  31	 118
  32	  34
  32	  35
  32	  36
  32	  37
  32	  38
  32	  39
  32	  40
  32	  42
  32	  45
  32	  48
  32	  49
  32	  50
  32	  51
  32	  52
  32	  54
  32	  56
  32	  57
  32	  58
  32	  59
  32	  61
  32	  63
  32	  66
  32	  67
  32	  68
  32	  69
  32	  70
  32	  71
  32	  72
  32	  73
  32	  74
  32	  75
  32	  76
  32	  78
  32	  83
  32	  84
  32	  86
  32	  87
  32	  88
  32	  94
  32	  95
  32	  96
  32	  97
  32	  98
  32	 100
  32	 104
  32	 105
  32	 106
  32	 107
  32	 111
  32	 115
  32	 116
  32	 117
  32	 119
  33	  35
  33	  36
  33	  43
  33	  44
  33	  45
  33	  46
  33	  48
  33	  49
  33	  54
  33	  56
  33	  61
  33	  62
  33	  64
  33	  66
  33	  67
  33	  71
  33	  76
  33	  81
  33	  82
  33	  83
  33	  84
  33	  87
  33	  88
  33	  91
  33	  95
  33	  96
  33	  99
  33	 100
  33	 101
  33	 103
  33	 104
  33	 106
  33	 108
  33	 109
  33	 112
  33	 113
  33	 116
  33	 118
  33	 119
  34	  36
  34	  37
  34	  39
  34	  40
  34	  42
  34	  43
  34	  45
  34	  46
  34	  48
  34	  49
  34	  52
  34	  53
  34	  54
  34	  55
  34	  56
  34	  57
  34	  60
  34	  63
  34	  64
  34	  65
  34	  66
  34	  67
  34	  69
  34	  72
  34	  73
  34	  76
  34	  77
  34	  78
  34	  80
  34	  81
  34	  83
  34	  88
  34	  89
  34	  92
  34	  93
  34	  96
  34	  97
  34	  99
  34	 101
  34	 102
  34	 103
  34	 104
  34	 105
  34	 106
  34	 107
  34	 109
  34	 111
  34	 112
  34	 114
  34	 116
  34	 117
  34	 119
  35	  38
  35	  39
  35	  40
  35	  42
  35	  43
  35	  45
  35	  47
  35	  51
  35	  54
  35	  55
  35	  56
  35	  58
  35	  59
  35	  61
  35	  62
  35	  63
  35	  64
  35	  67
  35	  69
  35	  71
  35	  72
  35	  74
  35	  78
  35	  81
  35	  82
  35	  83
  35	  85
  35	  86
  35	  88
  35	  90
  35	  93
  35	  95
  35	  98
  35	  99
  35	 101
  35	 102
  35	 104
  35	 105
  35	 106
  35	 108
  35	 109
  35	 113
  35	 115
  35	 116
  35	 118
  35	 119
  36	  38
  36	  42
  36	  46
  36	  49
  36	  50
  36	  51
  36	  53
  36	  55
  36	  56
  36	  59
  36	  62
  36	  63
  36	  64
  36	  65
  36	  68
  36	  69
  36	  72
  36	  73
  36	  74
  36	  76
  36	  77
  36	  78
  36	  82
  36	  83
  36	  87
  36	  89
  36	  90
  36	  91
  36	  92
  36	  94
  36	  97
  36	  98
  36	 103
  36	 104
  36	 109
  36	 111
  36	 115
  36	 117
  36	 119
  37	  39
  37	  45
  37	  47
  37	  49
  37	  50
  37	  54
  37	  56
  37	  57
  37	  60
  37	  61
  37	  62
  37	  65
  37	  69
  37	  70
  37	  74
  37	  76
  37	  78
  37	  79
  37	  82
  37	  83
  37	  84
  37	  88
  37	  89
  37	  90
  37	  92
  37	  94
  37	  96
  37	  97
  37	  99
  37	 101
  37	 102
  37	 105
  37	 106
  37	 107
  37	 108
  37	 110
  37	 111
  37	 112
  37	 116
  37	 117
  37	 118
  38	  39
  38	  40
  38	  44
  38	  46
  38	  48
  38	  50
  38	  51
  38	  52
  38	  54
  38	  55
  38	  56
  38	  58
  38	  59
  38	  61
  38	  62
  38	  64
  38	  65
  38	  72
  38	  74
  38	  75
  38	  76
  38	  78
  38	  82
  38	  83
  38	  84
  38	  88
  38	  90
  38	  92
  38	  93
  38	  95
  38	  97
  38	  98
  38	 101
  38	 102
  38	 103
  38	 105
  38	 106
  38	 107
  38	 108
  38	 109
  38	 111
  38	 114
  38	 115
  38	 117
  38	 118
  39	  40
  39	  41
  39	  42
  39	  43
  39	  44
  39	  45
  39	  48
  39	  49
  39	  52
  39	  53
  39	  54
  39	  56
  39	  58
  39	  62
  39	  63
  39	  64
  39	  65
  39	  66
  39	  71
  39	  73
  39	  74
  39	  77
  39	  82
  39	  84
  39	  86
  39	  89
  39	  91
  39	  93
  39	  95
  39	  96
  39	  97
  39	  99
  39	 102
  39	 103
  39	 104
  39	 106
  39	 107
  39	 115
  39	 117
  39	 118
  40	  42
  40	  43
  40	  45
  40	  46
  40	  53
  40	  54
  40	  55
  40	  56
  40	  58
  40	  60
  40	  61
  40	  62
  40	  63
  40	  68
  40	  71
  40	  72
  40	  73
  40	  74
  40	  75
  40	  76
  40	  80
  40	  82
  40	  83
  40	  85
  40	  87
  40	  88
  40	  90
  40	  91
  40	  95
  40	  96
  40	  97
  40	  99
  40	 100
  40	 101
  40	 102
  40	 107
  40	 108
  40	 109
  40	 113
  40	 114
  40	 115
  40	 119
  41	  43
  41	  47
  41	  50
  41	  51
  41	  52
  41	  53
  41	  54
  41	  55
  41	  57
  41	  58
  41	  62
  41	  68
  41	  70
  41	  72
  41	  77
  41	  81
  41	  84
  41	  87
  41	  88
  41	  91
  41	  93
  41	  94
  41	  95
  41	  96
  41	  97
  41	 100
  41	 103
  41	 105
  41	 107
  41	 108
  41	 109
  41	 111
  41	 112
  41	 114
  41	 115
  41	 117
  41	 118
  41	 119
  42	  43
  42	  45
  42	  47
  42	  48
  42	  51
  42	  55
  42	  56
  42	  57
  42	  60
  42	  61
  42	  62
  42	  67
  42	  68
  42	  69
  42	  70
  42	  73
  42	  74
  42	  76
  42	  78
  42	  79
  42	  80
  42	  81
  42	  83
  42	  85
  42	  87
  42	  89
  42	  92
  42	  93
  42	  95
  42	 101
  42	 102
  42	 106
  42	 110
  42	 113
  42	 115
  42	 117
  42	 118
  43	  50
  43	  52
  43	  53
  43	  57
  43	  58
  43	  60
  43	  63
  43	  65
  43	  66
  43	  68
  43	  73
  43	  75
  43	  76
  43	  78
  43	  79
  43	  80
  43	  81
  43	  83
  43	  84
  43	  85
  43	  86
  43	  87
  43	  88
  43	  90
  43	  92
  43	  93
  43	  99
  43	 100
  43	 104
  43	 105
  43	 107
  43	 108
  43	 113
  43	 114
  43	 116
  43	 117
  44	  48
  44	  49
  44	  50
  44	  51
  44	  56
  44	  58
  44	  62
  44	  63
  44	  67
  44	  69
  44	  70
  44	  71
  44	  72
  44	  73
  44	  79
  44	  80
  44	  86
  44	  89
  44	  91
  44	  92
  44	  93
  44	  95
  44	  96
  44	  97
  44	  98
  44	 100
  44	 101
  44	 102
  44	 103
  44	 104
  44	 105
  44	 106
  44	 107
  44	 109
  44	 110
  44	 112
  44	 113
  44	 115
  44	 117
  44	 119
  45	  46
  45	  47
  45	  53
  45	  56
  45	  59
  45	  60
  45	  62
  45	  66
  45	  69
  45	  71
  45	  72
  45	  73
  45	  79
  45	  80
  45	  83
  45	  86
  45	  92
  45	  93
  45	  94
  45	  96
  45	 100
  45	 101
  45	 102
  45	 103
  45	 104
  45	 105
  45	 106
  45	 108
  45	 111
  45	 112
  45	 114
  45	 115
  45	 116
  45	 117
  45	 118
  45	 119
  46	  48
  46	  49
  46	  55
  46	  60
  46	  62
  46	  63
  46	  65
  46	  66
  46	  67
  46	  68
  46	  69
  46	  71
  46	  72
  46	  74
  46	  75
  46	  80
  46	  83
  46	  84
  46	  85
  46	  88
  46	  89
  46	  90
  46	  92
  46	  94
  46	  97
  46	  98
  46	  99
  46	 100
  46	 101
  46	 103
  46	 104
  46	 105
  46	 108
  46	 109
  46	 112
  46	 117
  46	 118
  47	  48
  47	  51
  47	  52
  47	  53
  47	  54
  47	  55
  47	  58
  47	  59
  47	  62
  47	  64
  47	  66
  47	  68
  47	  70
  47	  71
  47	  72
  47	  73
  47	  75
  47	  76
  47	  82
  47	  84
  47	  85
  47	  89
  47	  90
  47	  97
  47	 101
  47	 102
  47	 107
  47	 109
  47	 110
  47	 113
  47	 114
  47	 117
  47	 118
  47	 119
  48	  50
  48	  51
  48	  53
  48	  54
  48	  55
  48	  56
  48	  57
  48	  59
  48	  61
  48	  67
  48	  69
  48	  70
  48	  71
  48	  77
  48	  78
  48	  79
  48	  80
  48	  85
  48	  88
  48	  90
  48	  94
  48	  97
  48	  98
  48	  99
  48	 101
  48	 102
  48	 105
  48	 106
  48	 107
  48	 108
  48	 109
  48	 111
  48	 112
  48	 113
  48	 114
  48	 115
  48	 116
  49	  50
  49	  52
  49	  53
  49	  55
  49	  56
  49	  57
  49	  60
  49	  61
  49	  63
  49	  64
  49	  65
  49	  66
  49	  68
  49	  75
  49	  76
  49	  79
  49	  82
  49	  84
  49	  86
  49	  87
  49	  89
  49	  95
  49	  97
  49	  99
  49	 100
  49	 102
  49	 106
  49	 109
  49	 110
  49	 111
  49	 112
  49	 113
  49	 115
  49	 116
  49	 118
  49	 119
  50	  52
  50	  56
  50	  57
  50	  59
  50	  60
  50	  62
  50	  63
  50	  65
  50	  67
  50	  69
  50	  72
  50	  73
  50	  74
  50	  80
  50	  83
  50	  84
  50	  90
  50	  91
  50	  92
  50	  94
  50	  97
  50	  99
  50	 101
  50	 102
  50	 106
  50	 107
  50	 108
  50	 109
  50	 110
  50	 112
  50	 114
  50	 115
  50	 116
  50	 117
  50	 118
  51	  52
  51	  53
  51	  54
  51	  55
  51	  56
  51	  59
  51	  63
  51	  65
  51	  66
  51	  69
  51	  71
  51	  72
  51	  73
  51	  78
  51	  79
  51	  80
  51	  83
  51	  85
  51	  86
  51	  90
  51	  93
  51	  97
  51	  98
  51	  99
  51	 102
  51	 103
  51	 105
  51	 112
  51	 116
  51	 117
  51	 118
  52	  54
  52	  55
  52	  57
  52	  59
  52	  60
  52	  61
  52	  63
  52	  65
  52	  74
  52	  77
  52	  78
  52	  79
  52	  80
  52	  86
  52	  88
  52	  89
  52	  91
  52	  94
  52	  95
  52	  96
  52	 100
  52	 101
  52	 103
  52	 104
  52	 106
  52	 110
  52	 112
  52	 113
  52	 114
  52	 117
  52	 118
  52	 119
  53	  54
  53	  57
  53	  59
  53	  61
  53	  64
  53	  65
  53	  67
  53	  68
  53	  69
  53	  71
  53	  72
  53	  73
  53	  74
  53	  75
  53	  79
  53	  80
  53	  82
  53	  83
  53	  86
  53	  87
  53	  88
  53	  89
  53	  90
  53	  92
  53	  95
  53	  96
  53	  99
  53	 100
  53	 101
  53	 104
  53	 105
  53	 106
  53	 111
  53	 112
  53	 113
  53	 115
  53	 117
  53	 119
  54	  55
  54	  59
  54	  60
  54	  62
  54	  64
  54	  65
  54	  67
  54	  69
  54	  71
  54	  74
  54	  78
  54	  79
  54	  80
  54	  81
  54	  82
  54	  87
  54	  91
  54	  92
  54	  95
  54	  97
  54	 103
  54	 107
  54	 108
  54	 111
  54	 113
  54	 116
  54	 118
  54	 119
  55	  56
  55	  57
  55	  58
  55	  60
  55	  64
  55	  66
  55	  68
  55	  70
  55	  71
  55	  72
  55	  74
  55	  76
  55	  77
  55	  79
  55	  81
  55	  87
  55	  91
  55	  92
  55	  93
  55	  94
  55	  96
  55	  97
  55	  98
  55	  99
  55	 101
  55	 102
  55	 108
  55	 109
  55	 110
  55	 113
  55	 116
  55	 118
  56	  61
  56	  63
  56	  64
  56	  65
  56	  66
  56	  68
  56	  70
  56	  74
  56	  75
  56	  77
  56	  79
  56	  80
  56	  81
  56	  86
  56	  89
  56	  90
  56	  91
  56	  92
  56	  93
  56	  95
  56	  97
  56	  99
  56	 100
  56	 101
  56	 106
  56	 109
  56	 110
  56	 111
  56	 112
  56	 113
  56	 117
  56	 118
  56	 119
  57	  59
  57	  60
  57	  61
  57	  62
  57	  65
  57	  67
  57	  68
  57	  70
  57	  71
  57	  72
  57	  73
  57	  75
  57	  76
  57	  79
  57	  80
  57	  81
  57	  84
  57	  86
  57	  87
  57	  91
  57	  93
  57	  94
  57	  95
  57	  96
  57	  97
  57	  98
  57	 101
  57	 105
  57	 107
  57	 115
  57	 116
  57	 117
  58	  60
  58	  61
  58	  63
  58	  64
  58	  65
  58	  69
  58	  71
  58	  76
  58	  77
  58	  78
  58	  81
  58	  86
  58	  87
  58	  88
  58	  91
  58	  94
  58	  99
  58	 100
  58	 104
  58	 105
  58	 106
  58	 107
  58	 109
  58	 111
  58	 113
  58	 115
  58	 116
  58	 117
  58	 118
  58	 119
  59	  66
  59	  67
  59	  68
  59	  69
  59	  70
  59	  72
  59	  73
  59	  76
  59	  78
  59	  83
  59	  85
  59	  86
  59	  87
  59	  90
  59	  93
  59	  94
  59	  98
  59	 100
  59	 102
  59	 103
  59	 104
  59	 106
  59	 107
  59	 108
  59	 111
  59	 113
  59	 114
  59	 117
  59	 119
  60	  61
  60	  63
  60	  64
  60	  69
  60	  71
  60	  74
  60	  77
  60	  80
  60	  84
  60	  85
  60	  88
  60	  90
  60	  91
  60	  92
  60	  93
  60	  96
  60	  97
  60	  98
  60	 100
  60	 101
  60	 102
  60	 103
  60	 104
  60	 106
  60	 107
  60	 112
  60	 113
  60	 115
  60	 116
  60	 119
  61	  62
  61	  63
  61	  65
  61	  66
  61	  71
  61	  72
  61	  76
  61	  77
  61	  80
  61	  83
  61	  84
  61	  85
  61	  87
  61	  91
  61	  93
  61	  94
  61	  96
  61	  98
  61	 101
  61	 102
  61	 105
  61	 109
  61	 111
  61	 115
  61	 116
  61	 117
  61	 118
  62	  63
  62	  64
  62	  65
  62	  66
  62	  74
  62	  75
  62	  77
  62	  81
  62	  84
  62	  85
  62	  88
  62	  90
  62	  92
  62	  95
  62	  97
  62	 100
  62	 101
  62	 103
  62	 106
  62	 108
  62	 113
  62	 114
  62	 115
  62	 116
  62	 117
  62	 118
  63	  64
  63	  65
  63	  68
  63	  69
  63	  72
  63	  75
  63	  77
  63	  78
  63	  81
  63	  84
  63	  85
  63	  89
  63	  91
  63	  93
  63	  94
  63	  96
  63	  97
  63	  98
  63	 100
  63	 102
  63	 106
  63	 110
  63	 112
  63	 115
  63	 116
  64	  70
  64	  77
  64	  80
  64	  82
  64	  83
  64	  84
  64	  85
  64	  87
  64	  89
  64	  90
  64	  91
  64	  92
  64	  95
  64	 101
  64	 102
  64	 103
  64	 104
  64	 108
  64	 109
  64	 112
  64	 116
  64	 117
  64	 119
  65	  66
  65	  69
  65	  70
  65	  72
  65	  73
  65	  77
  65	  79
  65	  85
  65	  86
  65	  87
  65	  88
  65	  92
  65	  93
  65	  97
  65	  98
  65	  99
  65	 101
  65	 103
  65	 105
  65	 106
  65	 107
  65	 109
  65	 110
  65	 111
  65	 116
  65	 118
  65	 119
  66	  67
  66	  69
  66	  73
  66	  75
  66	  78
  66	  81
  66	  82
  66	  84
  66	  87
  66	  92
  66	  93
  66	  94
  66	  95
  66	  96
  66	  97
  66	  98
  66	  99
  66	 100
  66	 102
  66	 103
  66	 105
  66	 106
  66	 108
  66	 110
  66	 113
  66	 114
  66	 115
  66	 116
  67	  70
  67	  71
  67	  74
  67	  75
  67	  76
  67	  79
  67	  81
  67	  83
  67	  84
  67	  85
  67	  86
  67	  88
  67	  89
  67	  91
  67	  96
  67	  97
  67	 100
  67	 101
  67	 106
  67	 108
  67	 109
  67	 110
  67	 111
  67	 112
  67	 113
  67	 114
  67	 117
  67	 118
  68	  69
  68	  71
  68	  72
  68	  73
  68	  75
  68	  76
  68	  78
  68	  81
  68	  83
  68	  84
  68	  86
  68	  93
  68	  94
  68	  95
  68	  96
  68	  98
  68	  99
  68	 101
  68	 102
  68	 105
  68	 107
  68	 108
  68	 109
  68	 111
  68	 114
  68	 115
  68	 116
  68	 118
  68	 119
  69	  70
  69	  71
  69	  76
  69	  79
  69	  81
  69	  82
  69	  91
  69	  92
  69	  93
  69	  96
  69	  98
  69	 100
  69	 101
  69	 102
  69	 105
  69	 106
  69	 109
  69	 114
  69	 116
  69	 117
  69	 118
  70	  71
  70	  78
  70	  79
  70	  80
  70	  81
  70	  82
  70	  83
  70	  84
  70	  87
  70	  88
  70	  89
  70	  93
  70	  94
  70	  95
  70	  96
  70	  97
  70	 105
  70	 107
  70	 108
  70	 109
  70	 112
  70	 113
  70	 117
  70	 118
  71	  72
  71	  73
  71	  76
  71	  80
  71	  81
  71	  83
  71	  84
  71	  85
  71	  87
  71	  89
  71	  90
  71	  94
  71	  96
  71	  97
  71	  99
  71	 100
  71	 102
  71	 104
  71	 107
  71	 108
  71	 109
  71	 110
  71	 111
  71	 113
  71	 114
  71	 115
  71	 117
  71	 118
  71	 119
  72	  73
  72	  76
  72	  79
  72	  81
  72	  82
  72	  83
  72	  84
  72	  85
  72	  86
  72	  87
  72	  88
  72	  90
  72	  93
  72	  97
  72	  99
  72	 101
  72	 102
  72	 103
  72	 104
  72	 107
  72	 109
  72	 110
  72	 111
  72	 114
  72	 116
  72	 117
  73	  75
  73	  77
  73	  78
  73	  79
  73	  80
  73	  82
  73	  83
  73	  84
  73	  85
  73	  87
  73	  92
  73	 100
  73	 101
  73	 102
  73	 103
  73	 104
  73	 105
  73	 106
  73	 109
  73	 111
  73	 112
  73	 115
  73	 116
  74	  79
  74	  80
  74	  82
  74	  83
  74	  87
  74	  90
  74	  95
  74	 102
  74	 105
  74	 106
  74	 107
  74	 108
  74	 109
  74	 110
  74	 112
  74	 113
  74	 118
  75	  76
  75	  77
  75	  81
  75	  83
  75	  84
  75	  86
  75	  88
  75	  90
  75	  91
  75	  92
  75	  93
  75	  95
  75	  96
  75	  99
  75	 100
  75	 103
  75	 108
  75	 110
  75	 113
  75	 115
  75	 116
  75	 119
  76	  79
  76	  82
  76	  83
  76	  84
  76	  86
  76	  90
  76	  91
  76	  93
  76	  94
  76	  95
  76	  96
  76	  97
  76	  99
  76	 100
  76	 101
  76	 102
  76	 103
  76	 105
  76	 106
  76	 108
  76	 110
  76	 112
  76	 114
  76	 115
  76	 118
  76	 119
  77	  80
  77	  81
  77	  82
  77	  85
  77	  86
  77	  87
  77	  88
  77	  92
  77	  96
  77	  98
  77	  99
  77	 101
  77	 102
  77	 104
  77	 109
  77	 110
  77	 111
  77	 114
  77	 115
  77	 116
  77	 118
  78	  79
  78	  82
  78	  84
  78	  86
  78	  88
  78	  92
  78	  94
  78	  97
  78	  98
  78	 100
  78	 101
  78	 102
  78	 103
  78	 104
  78	 111
  78	 113
  78	 114
  79	  80
  79	  82
  79	  89
  79	  91
  79	  92
  79	  95
  79	  97
  79	 100
  79	 107
  79	 109
  79	 111
  79	 113
  79	 114
  79	 116
  79	 118
  79	 119
  80	  81
  80	  84
  80	  86
  80	  88
  80	  89
  80	  90
  80	  91
  80	  93
  80	  95
  80	  96
  80	  98
  80	  99
  80	 101
  80	 104
  80	 106
  80	 107
  80	 108
  80	 111
  80	 112
  80	 116
  80	 119
  81	  82
  81	  84
  81	  87
  81	  89
  81	  91
  81	  92
  81	  94
  81	  95
  81	  96
  81	  97
  81	  98
  81	  99
  81	 102
  81	 104
  81	 107
  81	 109
  81	 113
  81	 115
  81	 118
  82	  84
  82	  85
  82	  86
  82	  88
  82	  93
  82	  97
  82	  98
  82	  99
  82	 103
  82	 105
  82	 106
  82	 108
  82	 110
  82	 111
  82	 112
  82	 115
  82	 119
  83	  85
  83	  86
  83	  87
  83	  91
  83	  92
  83	  94
  83	  95
  83	  96
  83	  97
  83	  98
  83	 100
  83	 102
  83	 104
  83	 106
  83	 107
  83	 109
  83	 113
  83	 115
  83	 118
  84	  85
  84	  86
  84	  89
  84	  90
  84	  91
  84	  92
  84	  98
  84	  99
  84	 105
  84	 109
  84	 111
  84	 112
  84	 113
  84	 114
  84	 115
  84	 116
  84	 117
  84	 118
  85	  89
  85	  90
  85	  91
  85	  93
  85	  94
  85	  96
  85	  97
  85	  98
  85	  99
  85	 105
  85	 106
  85	 107
  85	 108
  85	 109
  85	 110
  85	 111
  85	 112
  85	 113
  85	 115
  85	 116
  85	 117
  85	 118
  85	 119
  86	  89
  86	  90
  86	  94
  86	  95
  86	  96
  86	  98
  86	  99
  86	 100
  86	 101
  86	 103
  86	 105
  86	 107
  86	 111
  86	 112
  86	 115
  86	 118
  86	 119
  87	  89
  87	  91
  87	  92
  87	  94
  87	  96
  87	  99
  87	 100
  87	 101
  87	 102
  87	 104
  87	 110
  87	 111
  87	 112
  87	 113
  87	 115
  87	 118
  88	  89
  88	  91
  88	  95
  88	  96
  88	  98
  88	 100
  88	 102
  88	 104
  88	 105
  88	 107
  88	 108
  88	 109
  88	 114
  88	 116
  88	 118
  88	 119
  89	  90
  89	  91
  89	  96
  89	  98
  89	  99
  89	 100
  89	 102
  89	 104
  89	 105
  89	 106
  89	 110
  89	 112
  89	 113
  89	 114
  89	 115
  89	 117
  90	  91
  90	  93
  90	  96
  90	  98
  90	 100
  90	 101
  90	 104
  90	 105
  90	 107
  90	 110
  90	 111
  90	 112
  90	 117
  90	 118
  90	 119
  91	  92
  91	  93
  91	  95
  91	  96
  91	  97
  91	  99
  91	 103
  91	 104
  91	 105
  91	 106
  91	 107
  91	 109
  91	 111
  91	 112
  91	 114
  91	 116
  91	 119
  92	  94
  92	  95
  92	  96
  92	  99
  92	 100
  92	 101
  92	 104
  92	 107
  92	 109
  92	 110
  92	 111
  92	 117
  92	 119
  93	  97
  93	  99
  93	 103
  93	 106
  93	 107
  93	 109
  93	 110
  93	 111
  93	 117
  94	 102
  94	 104
  94	 105
  94	 109
  94	 114
  94	 115
  94	 118
  94	 119
  95	  97
  95	  98
  95	  99
  95	 100
  95	 101
  95	 103
  95	 105
  95	 106
  95	 107
  95	 108
  95	 110
  95	 112
  95	 114
  95	 115
  95	 116
  95	 117
  96	  98
  96	  99
  96	 100
  96	 101
  96	 103
  96	 104
  96	 105
  96	 107
  96	 108
  96	 110
  96	 111
  96	 112
  96	 118
  96	 119
  97	  99
  97	 104
  97	 105
  97	 109
  97	 113
  97	 114
  97	 116
  97	 118
  97	 119
  98	 103
  98	 104
  98	 105
  98	 106
  98	 107
  98	 108
  98	 110
  98	 114
  98	 116
  98	 117
  98	 118
  98	 119
  99	 106
  99	 107
  99	 108
  99	 110
  99	 111
  99	 114
  99	 117
 100	 101
 100	 104
 100	 105
 100	 107
 100	 108
 100	 109
 100	 111
 100	 112
 100	 114
 100	 118
 100	 119
 101	 105
 101	 106
 101	 108
 101	 110
 101	 112
 101	 114
 101	 115
 101	 119
 102	 103
 102	 105
 102	 110
 102	 112
 102	 115
 102	 116
 102	 117
 102	 119
 103	 105
 103	 106
 103	 107
 103	 111
 103	 112
 103	 114
 103	 115
 103	 116
 103	 117
 103	 118
 104	 105
 104	 106
 104	 110
 104	 111
 104	 112
 104	 114
 104	 115
 104	 117
 104	 118
 105	 107
 105	 108
 105	 110
 105	 112
 105	 113
 105	 115
 105	 116
 105	 119
 106	 109
 106	 115
 106	 116
 106	 119
 107	 112
 107	 113
 107	 114
 107	 115
 107	 116
 107	 117
 107	 118
 107	 119
 108	 110
 108	 112
 108	 115
 109	 110
 109	 111
 109	 113
 109	 116
 110	 113
 110	 118
 111	 112
 111	 113
 111	 114
 111	 115
 111	 116
 111	 117
 111	 119
 112	 113
 112	 115
 112	 116
 112	 119
 113	 114
 113	 115
 113	 117
 114	 115
 114	 118
 114	 119
 115	 116
 115	 117
 116	 117
 117	 119
;
